p tw 130 300
0 1
0 2
1 2
1 37
1 113
2 33
2 34
2 14
2 41
2 46
2 47
2 48
2 49
2 4
2 74
2 85
2 86
2 31
2 104
2 67
2 117
3 4
3 5
3 9
3 10
3 28
3 62
3 68
3 69
3 70
3 71
3 25
3 60
3 75
3 97
3 47
3 108
4 5
4 74
6 7
6 8
7 8
7 20
7 21
7 22
7 23
7 39
7 40
7 53
7 54
7 58
7 59
7 75
7 76
7 42
7 84
7 100
7 115
7 63
7 93
7 127
7 128
7 79
7 105
8 17
8 77
9 10
10 13
10 79
11 12
11 13
11 37
11 46
12 13
12 30
12 72
13 31
13 32
13 60
13 61
13 79
13 82
13 83
13 70
13 95
13 90
13 100
13 38
13 101
13 92
13 118
13 109
13 114
13 113
13 126
14 15
14 16
14 41
15 16
15 27
15 28
15 33
15 52
15 63
15 64
15 36
15 95
15 55
15 102
15 107
15 114
15 24
15 111
15 96
15 123
15 126
15 127
16 26
16 69
17 18
17 19
17 42
17 43
17 55
17 56
17 77
17 45
17 54
17 66
17 87
17 89
17 124
18 19
19 27
19 65
20 21
20 30
20 121
22 23
22 29
22 30
23 65
23 129
24 25
24 26
24 111
25 26
25 60
26 44
26 45
26 43
26 78
26 57
26 89
26 59
26 94
26 109
26 110
26 56
26 82
26 62
26 122
26 51
26 125
26 69
27 28
27 65
28 62
29 30
29 37
29 38
30 50
30 51
30 39
30 57
30 72
30 80
30 81
30 58
30 91
30 96
30 97
30 83
30 99
30 111
30 112
30 34
30 77
30 116
30 117
30 121
31 32
31 104
32 37
32 121
33 34
33 52
34 77
35 36
35 37
36 37
36 95
37 38
37 46
37 49
37 84
37 87
37 88
37 91
37 92
37 74
37 93
37 81
37 105
37 113
37 110
37 120
37 121
37 53
37 85
38 101
39 40
39 57
40 65
40 119
41 65
41 98
42 43
42 84
43 78
44 45
45 54
46 47
47 108
48 49
49 84
50 51
50 65
50 90
51 125
53 54
53 85
55 56
55 102
56 82
57 89
58 59
58 91
59 94
60 61
62 122
63 64
63 93
65 66
65 67
65 71
65 73
65 90
65 98
65 76
65 103
65 106
65 107
65 119
65 129
66 67
66 87
67 117
68 69
70 71
70 95
71 73
74 93
75 76
75 97
76 103
79 105
80 81
81 105
82 83
83 99
85 86
87 88
89 124
90 100
91 92
92 118
96 97
96 123
100 115
106 107
107 114
109 110
109 114
110 120
111 112
113 126
116 117
126 127
127 128
